p cnf 684 2295
-1 0
-343 0
361 2 0
-361 -2 0
2 379 3 0
-2 -379 0
-2 -3 0
-379 -3 0
3 397 4 0
-3 -397 0
-3 -4 0
-397 -4 0
4 415 5 0
-4 -415 0
-4 -5 0
-415 -5 0
5 433 6 0
-5 -433 0
-5 -6 0
-433 -6 0
6 451 7 0
-6 -451 0
-6 -7 0
-451 -7 0
7 469 8 0
-7 -469 0
-7 -8 0
-469 -8 0
8 487 9 0
-8 -487 0
-8 -9 0
-487 -9 0
9 505 10 0
-9 -505 0
-9 -10 0
-505 -10 0
10 523 11 0
-10 -523 0
-10 -11 0
-523 -11 0
11 541 12 0
-11 -541 0
-11 -12 0
-541 -12 0
12 559 13 0
-12 -559 0
-12 -13 0
-559 -13 0
13 577 14 0
-13 -577 0
-13 -14 0
-577 -14 0
14 595 15 0
-14 -595 0
-14 -15 0
-595 -15 0
15 613 16 0
-15 -613 0
-15 -16 0
-613 -16 0
16 631 17 0
-16 -631 0
-16 -17 0
-631 -17 0
17 649 18 0
-17 -649 0
-17 -18 0
-649 -18 0
18 667 0
-18 -667 0
344 19 0
-344 -19 0
361 19 362 20 0
-361 -19 0
-361 -362 0
-361 -20 0
-19 -362 0
-19 -20 0
-362 -20 0
379 20 380 21 0
-379 -20 0
-379 -380 0
-379 -21 0
-20 -380 0
-20 -21 0
-380 -21 0
397 21 398 22 0
-397 -21 0
-397 -398 0
-397 -22 0
-21 -398 0
-21 -22 0
-398 -22 0
415 22 416 23 0
-415 -22 0
-415 -416 0
-415 -23 0
-22 -416 0
-22 -23 0
-416 -23 0
433 23 434 24 0
-433 -23 0
-433 -434 0
-433 -24 0
-23 -434 0
-23 -24 0
-434 -24 0
451 24 452 25 0
-451 -24 0
-451 -452 0
-451 -25 0
-24 -452 0
-24 -25 0
-452 -25 0
469 25 470 26 0
-469 -25 0
-469 -470 0
-469 -26 0
-25 -470 0
-25 -26 0
-470 -26 0
487 26 488 27 0
-487 -26 0
-487 -488 0
-487 -27 0
-26 -488 0
-26 -27 0
-488 -27 0
505 27 506 28 0
-505 -27 0
-505 -506 0
-505 -28 0
-27 -506 0
-27 -28 0
-506 -28 0
523 28 524 29 0
-523 -28 0
-523 -524 0
-523 -29 0
-28 -524 0
-28 -29 0
-524 -29 0
541 29 542 30 0
-541 -29 0
-541 -542 0
-541 -30 0
-29 -542 0
-29 -30 0
-542 -30 0
559 30 560 31 0
-559 -30 0
-559 -560 0
-559 -31 0
-30 -560 0
-30 -31 0
-560 -31 0
577 31 578 32 0
-577 -31 0
-577 -578 0
-577 -32 0
-31 -578 0
-31 -32 0
-578 -32 0
595 32 596 33 0
-595 -32 0
-595 -596 0
-595 -33 0
-32 -596 0
-32 -33 0
-596 -33 0
613 33 614 34 0
-613 -33 0
-613 -614 0
-613 -34 0
-33 -614 0
-33 -34 0
-614 -34 0
631 34 632 35 0
-631 -34 0
-631 -632 0
-631 -35 0
-34 -632 0
-34 -35 0
-632 -35 0
649 35 650 36 0
-649 -35 0
-649 -650 0
-649 -36 0
-35 -650 0
-35 -36 0
-650 -36 0
667 36 668 0
-667 -36 0
-667 -668 0
-36 -668 0
344 345 37 0
-344 -345 0
-344 -37 0
-345 -37 0
362 37 363 38 0
-362 -37 0
-362 -363 0
-362 -38 0
-37 -363 0
-37 -38 0
-363 -38 0
380 38 381 39 0
-380 -38 0
-380 -381 0
-380 -39 0
-38 -381 0
-38 -39 0
-381 -39 0
398 39 399 40 0
-398 -39 0
-398 -399 0
-398 -40 0
-39 -399 0
-39 -40 0
-399 -40 0
416 40 417 41 0
-416 -40 0
-416 -417 0
-416 -41 0
-40 -417 0
-40 -41 0
-417 -41 0
434 41 435 42 0
-434 -41 0
-434 -435 0
-434 -42 0
-41 -435 0
-41 -42 0
-435 -42 0
452 42 453 43 0
-452 -42 0
-452 -453 0
-452 -43 0
-42 -453 0
-42 -43 0
-453 -43 0
470 43 471 44 0
-470 -43 0
-470 -471 0
-470 -44 0
-43 -471 0
-43 -44 0
-471 -44 0
488 44 489 45 0
-488 -44 0
-488 -489 0
-488 -45 0
-44 -489 0
-44 -45 0
-489 -45 0
506 45 507 46 0
-506 -45 0
-506 -507 0
-506 -46 0
-45 -507 0
-45 -46 0
-507 -46 0
524 46 525 47 0
-524 -46 0
-524 -525 0
-524 -47 0
-46 -525 0
-46 -47 0
-525 -47 0
542 47 543 48 0
-542 -47 0
-542 -543 0
-542 -48 0
-47 -543 0
-47 -48 0
-543 -48 0
560 48 561 49 0
-560 -48 0
-560 -561 0
-560 -49 0
-48 -561 0
-48 -49 0
-561 -49 0
578 49 579 50 0
-578 -49 0
-578 -579 0
-578 -50 0
-49 -579 0
-49 -50 0
-579 -50 0
596 50 597 51 0
-596 -50 0
-596 -597 0
-596 -51 0
-50 -597 0
-50 -51 0
-597 -51 0
614 51 615 52 0
-614 -51 0
-614 -615 0
-614 -52 0
-51 -615 0
-51 -52 0
-615 -52 0
632 52 633 53 0
-632 -52 0
-632 -633 0
-632 -53 0
-52 -633 0
-52 -53 0
-633 -53 0
650 53 651 54 0
-650 -53 0
-650 -651 0
-650 -54 0
-53 -651 0
-53 -54 0
-651 -54 0
668 54 669 0
-668 -54 0
-668 -669 0
-54 -669 0
345 346 55 0
-345 -346 0
-345 -55 0
-346 -55 0
363 55 364 56 0
-363 -55 0
-363 -364 0
-363 -56 0
-55 -364 0
-55 -56 0
-364 -56 0
381 56 382 57 0
-381 -56 0
-381 -382 0
-381 -57 0
-56 -382 0
-56 -57 0
-382 -57 0
399 57 400 58 0
-399 -57 0
-399 -400 0
-399 -58 0
-57 -400 0
-57 -58 0
-400 -58 0
417 58 418 59 0
-417 -58 0
-417 -418 0
-417 -59 0
-58 -418 0
-58 -59 0
-418 -59 0
435 59 436 60 0
-435 -59 0
-435 -436 0
-435 -60 0
-59 -436 0
-59 -60 0
-436 -60 0
453 60 454 61 0
-453 -60 0
-453 -454 0
-453 -61 0
-60 -454 0
-60 -61 0
-454 -61 0
471 61 472 62 0
-471 -61 0
-471 -472 0
-471 -62 0
-61 -472 0
-61 -62 0
-472 -62 0
489 62 490 63 0
-489 -62 0
-489 -490 0
-489 -63 0
-62 -490 0
-62 -63 0
-490 -63 0
507 63 508 64 0
-507 -63 0
-507 -508 0
-507 -64 0
-63 -508 0
-63 -64 0
-508 -64 0
525 64 526 65 0
-525 -64 0
-525 -526 0
-525 -65 0
-64 -526 0
-64 -65 0
-526 -65 0
543 65 544 66 0
-543 -65 0
-543 -544 0
-543 -66 0
-65 -544 0
-65 -66 0
-544 -66 0
561 66 562 67 0
-561 -66 0
-561 -562 0
-561 -67 0
-66 -562 0
-66 -67 0
-562 -67 0
579 67 580 68 0
-579 -67 0
-579 -580 0
-579 -68 0
-67 -580 0
-67 -68 0
-580 -68 0
597 68 598 69 0
-597 -68 0
-597 -598 0
-597 -69 0
-68 -598 0
-68 -69 0
-598 -69 0
615 69 616 70 0
-615 -69 0
-615 -616 0
-615 -70 0
-69 -616 0
-69 -70 0
-616 -70 0
633 70 634 71 0
-633 -70 0
-633 -634 0
-633 -71 0
-70 -634 0
-70 -71 0
-634 -71 0
651 71 652 72 0
-651 -71 0
-651 -652 0
-651 -72 0
-71 -652 0
-71 -72 0
-652 -72 0
669 72 670 0
-669 -72 0
-669 -670 0
-72 -670 0
346 347 73 0
-346 -347 0
-346 -73 0
-347 -73 0
364 73 365 74 0
-364 -73 0
-364 -365 0
-364 -74 0
-73 -365 0
-73 -74 0
-365 -74 0
382 74 383 75 0
-382 -74 0
-382 -383 0
-382 -75 0
-74 -383 0
-74 -75 0
-383 -75 0
400 75 401 76 0
-400 -75 0
-400 -401 0
-400 -76 0
-75 -401 0
-75 -76 0
-401 -76 0
418 76 419 77 0
-418 -76 0
-418 -419 0
-418 -77 0
-76 -419 0
-76 -77 0
-419 -77 0
436 77 437 78 0
-436 -77 0
-436 -437 0
-436 -78 0
-77 -437 0
-77 -78 0
-437 -78 0
454 78 455 79 0
-454 -78 0
-454 -455 0
-454 -79 0
-78 -455 0
-78 -79 0
-455 -79 0
472 79 473 80 0
-472 -79 0
-472 -473 0
-472 -80 0
-79 -473 0
-79 -80 0
-473 -80 0
490 80 491 81 0
-490 -80 0
-490 -491 0
-490 -81 0
-80 -491 0
-80 -81 0
-491 -81 0
508 81 509 82 0
-508 -81 0
-508 -509 0
-508 -82 0
-81 -509 0
-81 -82 0
-509 -82 0
526 82 527 83 0
-526 -82 0
-526 -527 0
-526 -83 0
-82 -527 0
-82 -83 0
-527 -83 0
544 83 545 84 0
-544 -83 0
-544 -545 0
-544 -84 0
-83 -545 0
-83 -84 0
-545 -84 0
562 84 563 85 0
-562 -84 0
-562 -563 0
-562 -85 0
-84 -563 0
-84 -85 0
-563 -85 0
580 85 581 86 0
-580 -85 0
-580 -581 0
-580 -86 0
-85 -581 0
-85 -86 0
-581 -86 0
598 86 599 87 0
-598 -86 0
-598 -599 0
-598 -87 0
-86 -599 0
-86 -87 0
-599 -87 0
616 87 617 88 0
-616 -87 0
-616 -617 0
-616 -88 0
-87 -617 0
-87 -88 0
-617 -88 0
634 88 635 89 0
-634 -88 0
-634 -635 0
-634 -89 0
-88 -635 0
-88 -89 0
-635 -89 0
652 89 653 90 0
-652 -89 0
-652 -653 0
-652 -90 0
-89 -653 0
-89 -90 0
-653 -90 0
670 90 671 0
-670 -90 0
-670 -671 0
-90 -671 0
347 348 91 0
-347 -348 0
-347 -91 0
-348 -91 0
365 91 366 92 0
-365 -91 0
-365 -366 0
-365 -92 0
-91 -366 0
-91 -92 0
-366 -92 0
383 92 384 93 0
-383 -92 0
-383 -384 0
-383 -93 0
-92 -384 0
-92 -93 0
-384 -93 0
401 93 402 94 0
-401 -93 0
-401 -402 0
-401 -94 0
-93 -402 0
-93 -94 0
-402 -94 0
419 94 420 95 0
-419 -94 0
-419 -420 0
-419 -95 0
-94 -420 0
-94 -95 0
-420 -95 0
437 95 438 96 0
-437 -95 0
-437 -438 0
-437 -96 0
-95 -438 0
-95 -96 0
-438 -96 0
455 96 456 97 0
-455 -96 0
-455 -456 0
-455 -97 0
-96 -456 0
-96 -97 0
-456 -97 0
473 97 474 98 0
-473 -97 0
-473 -474 0
-473 -98 0
-97 -474 0
-97 -98 0
-474 -98 0
491 98 492 99 0
-491 -98 0
-491 -492 0
-491 -99 0
-98 -492 0
-98 -99 0
-492 -99 0
509 99 510 100 0
-509 -99 0
-509 -510 0
-509 -100 0
-99 -510 0
-99 -100 0
-510 -100 0
527 100 528 101 0
-527 -100 0
-527 -528 0
-527 -101 0
-100 -528 0
-100 -101 0
-528 -101 0
545 101 546 102 0
-545 -101 0
-545 -546 0
-545 -102 0
-101 -546 0
-101 -102 0
-546 -102 0
563 102 564 103 0
-563 -102 0
-563 -564 0
-563 -103 0
-102 -564 0
-102 -103 0
-564 -103 0
581 103 582 104 0
-581 -103 0
-581 -582 0
-581 -104 0
-103 -582 0
-103 -104 0
-582 -104 0
599 104 600 105 0
-599 -104 0
-599 -600 0
-599 -105 0
-104 -600 0
-104 -105 0
-600 -105 0
617 105 618 106 0
-617 -105 0
-617 -618 0
-617 -106 0
-105 -618 0
-105 -106 0
-618 -106 0
635 106 636 107 0
-635 -106 0
-635 -636 0
-635 -107 0
-106 -636 0
-106 -107 0
-636 -107 0
653 107 654 108 0
-653 -107 0
-653 -654 0
-653 -108 0
-107 -654 0
-107 -108 0
-654 -108 0
671 108 672 0
-671 -108 0
-671 -672 0
-108 -672 0
348 349 109 0
-348 -349 0
-348 -109 0
-349 -109 0
366 109 367 110 0
-366 -109 0
-366 -367 0
-366 -110 0
-109 -367 0
-109 -110 0
-367 -110 0
384 110 385 111 0
-384 -110 0
-384 -385 0
-384 -111 0
-110 -385 0
-110 -111 0
-385 -111 0
402 111 403 112 0
-402 -111 0
-402 -403 0
-402 -112 0
-111 -403 0
-111 -112 0
-403 -112 0
420 112 421 113 0
-420 -112 0
-420 -421 0
-420 -113 0
-112 -421 0
-112 -113 0
-421 -113 0
438 113 439 114 0
-438 -113 0
-438 -439 0
-438 -114 0
-113 -439 0
-113 -114 0
-439 -114 0
456 114 457 115 0
-456 -114 0
-456 -457 0
-456 -115 0
-114 -457 0
-114 -115 0
-457 -115 0
474 115 475 116 0
-474 -115 0
-474 -475 0
-474 -116 0
-115 -475 0
-115 -116 0
-475 -116 0
492 116 493 117 0
-492 -116 0
-492 -493 0
-492 -117 0
-116 -493 0
-116 -117 0
-493 -117 0
510 117 511 118 0
-510 -117 0
-510 -511 0
-510 -118 0
-117 -511 0
-117 -118 0
-511 -118 0
528 118 529 119 0
-528 -118 0
-528 -529 0
-528 -119 0
-118 -529 0
-118 -119 0
-529 -119 0
546 119 547 120 0
-546 -119 0
-546 -547 0
-546 -120 0
-119 -547 0
-119 -120 0
-547 -120 0
564 120 565 121 0
-564 -120 0
-564 -565 0
-564 -121 0
-120 -565 0
-120 -121 0
-565 -121 0
582 121 583 122 0
-582 -121 0
-582 -583 0
-582 -122 0
-121 -583 0
-121 -122 0
-583 -122 0
600 122 601 123 0
-600 -122 0
-600 -601 0
-600 -123 0
-122 -601 0
-122 -123 0
-601 -123 0
618 123 619 124 0
-618 -123 0
-618 -619 0
-618 -124 0
-123 -619 0
-123 -124 0
-619 -124 0
636 124 637 125 0
-636 -124 0
-636 -637 0
-636 -125 0
-124 -637 0
-124 -125 0
-637 -125 0
654 125 655 126 0
-654 -125 0
-654 -655 0
-654 -126 0
-125 -655 0
-125 -126 0
-655 -126 0
672 126 673 0
-672 -126 0
-672 -673 0
-126 -673 0
349 350 127 0
-349 -350 0
-349 -127 0
-350 -127 0
367 127 368 128 0
-367 -127 0
-367 -368 0
-367 -128 0
-127 -368 0
-127 -128 0
-368 -128 0
385 128 386 129 0
-385 -128 0
-385 -386 0
-385 -129 0
-128 -386 0
-128 -129 0
-386 -129 0
403 129 404 130 0
-403 -129 0
-403 -404 0
-403 -130 0
-129 -404 0
-129 -130 0
-404 -130 0
421 130 422 131 0
-421 -130 0
-421 -422 0
-421 -131 0
-130 -422 0
-130 -131 0
-422 -131 0
439 131 440 132 0
-439 -131 0
-439 -440 0
-439 -132 0
-131 -440 0
-131 -132 0
-440 -132 0
457 132 458 133 0
-457 -132 0
-457 -458 0
-457 -133 0
-132 -458 0
-132 -133 0
-458 -133 0
475 133 476 134 0
-475 -133 0
-475 -476 0
-475 -134 0
-133 -476 0
-133 -134 0
-476 -134 0
493 134 494 135 0
-493 -134 0
-493 -494 0
-493 -135 0
-134 -494 0
-134 -135 0
-494 -135 0
511 135 512 136 0
-511 -135 0
-511 -512 0
-511 -136 0
-135 -512 0
-135 -136 0
-512 -136 0
529 136 530 137 0
-529 -136 0
-529 -530 0
-529 -137 0
-136 -530 0
-136 -137 0
-530 -137 0
547 137 548 138 0
-547 -137 0
-547 -548 0
-547 -138 0
-137 -548 0
-137 -138 0
-548 -138 0
565 138 566 139 0
-565 -138 0
-565 -566 0
-565 -139 0
-138 -566 0
-138 -139 0
-566 -139 0
583 139 584 140 0
-583 -139 0
-583 -584 0
-583 -140 0
-139 -584 0
-139 -140 0
-584 -140 0
601 140 602 141 0
-601 -140 0
-601 -602 0
-601 -141 0
-140 -602 0
-140 -141 0
-602 -141 0
619 141 620 142 0
-619 -141 0
-619 -620 0
-619 -142 0
-141 -620 0
-141 -142 0
-620 -142 0
637 142 638 143 0
-637 -142 0
-637 -638 0
-637 -143 0
-142 -638 0
-142 -143 0
-638 -143 0
655 143 656 144 0
-655 -143 0
-655 -656 0
-655 -144 0
-143 -656 0
-143 -144 0
-656 -144 0
673 144 674 0
-673 -144 0
-673 -674 0
-144 -674 0
350 351 145 0
-350 -351 0
-350 -145 0
-351 -145 0
368 145 369 146 0
-368 -145 0
-368 -369 0
-368 -146 0
-145 -369 0
-145 -146 0
-369 -146 0
386 146 387 147 0
-386 -146 0
-386 -387 0
-386 -147 0
-146 -387 0
-146 -147 0
-387 -147 0
404 147 405 148 0
-404 -147 0
-404 -405 0
-404 -148 0
-147 -405 0
-147 -148 0
-405 -148 0
422 148 423 149 0
-422 -148 0
-422 -423 0
-422 -149 0
-148 -423 0
-148 -149 0
-423 -149 0
440 149 441 150 0
-440 -149 0
-440 -441 0
-440 -150 0
-149 -441 0
-149 -150 0
-441 -150 0
458 150 459 151 0
-458 -150 0
-458 -459 0
-458 -151 0
-150 -459 0
-150 -151 0
-459 -151 0
476 151 477 152 0
-476 -151 0
-476 -477 0
-476 -152 0
-151 -477 0
-151 -152 0
-477 -152 0
494 152 495 153 0
-494 -152 0
-494 -495 0
-494 -153 0
-152 -495 0
-152 -153 0
-495 -153 0
512 153 513 154 0
-512 -153 0
-512 -513 0
-512 -154 0
-153 -513 0
-153 -154 0
-513 -154 0
530 154 531 155 0
-530 -154 0
-530 -531 0
-530 -155 0
-154 -531 0
-154 -155 0
-531 -155 0
548 155 549 156 0
-548 -155 0
-548 -549 0
-548 -156 0
-155 -549 0
-155 -156 0
-549 -156 0
566 156 567 157 0
-566 -156 0
-566 -567 0
-566 -157 0
-156 -567 0
-156 -157 0
-567 -157 0
584 157 585 158 0
-584 -157 0
-584 -585 0
-584 -158 0
-157 -585 0
-157 -158 0
-585 -158 0
602 158 603 159 0
-602 -158 0
-602 -603 0
-602 -159 0
-158 -603 0
-158 -159 0
-603 -159 0
620 159 621 160 0
-620 -159 0
-620 -621 0
-620 -160 0
-159 -621 0
-159 -160 0
-621 -160 0
638 160 639 161 0
-638 -160 0
-638 -639 0
-638 -161 0
-160 -639 0
-160 -161 0
-639 -161 0
656 161 657 162 0
-656 -161 0
-656 -657 0
-656 -162 0
-161 -657 0
-161 -162 0
-657 -162 0
674 162 675 0
-674 -162 0
-674 -675 0
-162 -675 0
351 352 163 0
-351 -352 0
-351 -163 0
-352 -163 0
369 163 370 164 0
-369 -163 0
-369 -370 0
-369 -164 0
-163 -370 0
-163 -164 0
-370 -164 0
387 164 388 165 0
-387 -164 0
-387 -388 0
-387 -165 0
-164 -388 0
-164 -165 0
-388 -165 0
405 165 406 166 0
-405 -165 0
-405 -406 0
-405 -166 0
-165 -406 0
-165 -166 0
-406 -166 0
423 166 424 167 0
-423 -166 0
-423 -424 0
-423 -167 0
-166 -424 0
-166 -167 0
-424 -167 0
441 167 442 168 0
-441 -167 0
-441 -442 0
-441 -168 0
-167 -442 0
-167 -168 0
-442 -168 0
459 168 460 169 0
-459 -168 0
-459 -460 0
-459 -169 0
-168 -460 0
-168 -169 0
-460 -169 0
477 169 478 170 0
-477 -169 0
-477 -478 0
-477 -170 0
-169 -478 0
-169 -170 0
-478 -170 0
495 170 496 171 0
-495 -170 0
-495 -496 0
-495 -171 0
-170 -496 0
-170 -171 0
-496 -171 0
513 171 514 172 0
-513 -171 0
-513 -514 0
-513 -172 0
-171 -514 0
-171 -172 0
-514 -172 0
531 172 532 173 0
-531 -172 0
-531 -532 0
-531 -173 0
-172 -532 0
-172 -173 0
-532 -173 0
549 173 550 174 0
-549 -173 0
-549 -550 0
-549 -174 0
-173 -550 0
-173 -174 0
-550 -174 0
567 174 568 175 0
-567 -174 0
-567 -568 0
-567 -175 0
-174 -568 0
-174 -175 0
-568 -175 0
585 175 586 176 0
-585 -175 0
-585 -586 0
-585 -176 0
-175 -586 0
-175 -176 0
-586 -176 0
603 176 604 177 0
-603 -176 0
-603 -604 0
-603 -177 0
-176 -604 0
-176 -177 0
-604 -177 0
621 177 622 178 0
-621 -177 0
-621 -622 0
-621 -178 0
-177 -622 0
-177 -178 0
-622 -178 0
639 178 640 179 0
-639 -178 0
-639 -640 0
-639 -179 0
-178 -640 0
-178 -179 0
-640 -179 0
657 179 658 180 0
-657 -179 0
-657 -658 0
-657 -180 0
-179 -658 0
-179 -180 0
-658 -180 0
675 180 676 0
-675 -180 0
-675 -676 0
-180 -676 0
352 353 181 0
-352 -353 0
-352 -181 0
-353 -181 0
370 181 371 182 0
-370 -181 0
-370 -371 0
-370 -182 0
-181 -371 0
-181 -182 0
-371 -182 0
388 182 389 183 0
-388 -182 0
-388 -389 0
-388 -183 0
-182 -389 0
-182 -183 0
-389 -183 0
406 183 407 184 0
-406 -183 0
-406 -407 0
-406 -184 0
-183 -407 0
-183 -184 0
-407 -184 0
424 184 425 185 0
-424 -184 0
-424 -425 0
-424 -185 0
-184 -425 0
-184 -185 0
-425 -185 0
442 185 443 186 0
-442 -185 0
-442 -443 0
-442 -186 0
-185 -443 0
-185 -186 0
-443 -186 0
460 186 461 187 0
-460 -186 0
-460 -461 0
-460 -187 0
-186 -461 0
-186 -187 0
-461 -187 0
478 187 479 188 0
-478 -187 0
-478 -479 0
-478 -188 0
-187 -479 0
-187 -188 0
-479 -188 0
496 188 497 189 0
-496 -188 0
-496 -497 0
-496 -189 0
-188 -497 0
-188 -189 0
-497 -189 0
514 189 515 190 0
-514 -189 0
-514 -515 0
-514 -190 0
-189 -515 0
-189 -190 0
-515 -190 0
532 190 533 191 0
-532 -190 0
-532 -533 0
-532 -191 0
-190 -533 0
-190 -191 0
-533 -191 0
550 191 551 192 0
-550 -191 0
-550 -551 0
-550 -192 0
-191 -551 0
-191 -192 0
-551 -192 0
568 192 569 193 0
-568 -192 0
-568 -569 0
-568 -193 0
-192 -569 0
-192 -193 0
-569 -193 0
586 193 587 194 0
-586 -193 0
-586 -587 0
-586 -194 0
-193 -587 0
-193 -194 0
-587 -194 0
604 194 605 195 0
-604 -194 0
-604 -605 0
-604 -195 0
-194 -605 0
-194 -195 0
-605 -195 0
622 195 623 196 0
-622 -195 0
-622 -623 0
-622 -196 0
-195 -623 0
-195 -196 0
-623 -196 0
640 196 641 197 0
-640 -196 0
-640 -641 0
-640 -197 0
-196 -641 0
-196 -197 0
-641 -197 0
658 197 659 198 0
-658 -197 0
-658 -659 0
-658 -198 0
-197 -659 0
-197 -198 0
-659 -198 0
676 198 677 0
-676 -198 0
-676 -677 0
-198 -677 0
353 354 199 0
-353 -354 0
-353 -199 0
-354 -199 0
371 199 372 200 0
-371 -199 0
-371 -372 0
-371 -200 0
-199 -372 0
-199 -200 0
-372 -200 0
389 200 390 201 0
-389 -200 0
-389 -390 0
-389 -201 0
-200 -390 0
-200 -201 0
-390 -201 0
407 201 408 202 0
-407 -201 0
-407 -408 0
-407 -202 0
-201 -408 0
-201 -202 0
-408 -202 0
425 202 426 203 0
-425 -202 0
-425 -426 0
-425 -203 0
-202 -426 0
-202 -203 0
-426 -203 0
443 203 444 204 0
-443 -203 0
-443 -444 0
-443 -204 0
-203 -444 0
-203 -204 0
-444 -204 0
461 204 462 205 0
-461 -204 0
-461 -462 0
-461 -205 0
-204 -462 0
-204 -205 0
-462 -205 0
479 205 480 206 0
-479 -205 0
-479 -480 0
-479 -206 0
-205 -480 0
-205 -206 0
-480 -206 0
497 206 498 207 0
-497 -206 0
-497 -498 0
-497 -207 0
-206 -498 0
-206 -207 0
-498 -207 0
515 207 516 208 0
-515 -207 0
-515 -516 0
-515 -208 0
-207 -516 0
-207 -208 0
-516 -208 0
533 208 534 209 0
-533 -208 0
-533 -534 0
-533 -209 0
-208 -534 0
-208 -209 0
-534 -209 0
551 209 552 210 0
-551 -209 0
-551 -552 0
-551 -210 0
-209 -552 0
-209 -210 0
-552 -210 0
569 210 570 211 0
-569 -210 0
-569 -570 0
-569 -211 0
-210 -570 0
-210 -211 0
-570 -211 0
587 211 588 212 0
-587 -211 0
-587 -588 0
-587 -212 0
-211 -588 0
-211 -212 0
-588 -212 0
605 212 606 213 0
-605 -212 0
-605 -606 0
-605 -213 0
-212 -606 0
-212 -213 0
-606 -213 0
623 213 624 214 0
-623 -213 0
-623 -624 0
-623 -214 0
-213 -624 0
-213 -214 0
-624 -214 0
641 214 642 215 0
-641 -214 0
-641 -642 0
-641 -215 0
-214 -642 0
-214 -215 0
-642 -215 0
659 215 660 216 0
-659 -215 0
-659 -660 0
-659 -216 0
-215 -660 0
-215 -216 0
-660 -216 0
677 216 678 0
-677 -216 0
-677 -678 0
-216 -678 0
354 355 217 0
-354 -355 0
-354 -217 0
-355 -217 0
372 217 373 218 0
-372 -217 0
-372 -373 0
-372 -218 0
-217 -373 0
-217 -218 0
-373 -218 0
390 218 391 219 0
-390 -218 0
-390 -391 0
-390 -219 0
-218 -391 0
-218 -219 0
-391 -219 0
408 219 409 220 0
-408 -219 0
-408 -409 0
-408 -220 0
-219 -409 0
-219 -220 0
-409 -220 0
426 220 427 221 0
-426 -220 0
-426 -427 0
-426 -221 0
-220 -427 0
-220 -221 0
-427 -221 0
444 221 445 222 0
-444 -221 0
-444 -445 0
-444 -222 0
-221 -445 0
-221 -222 0
-445 -222 0
462 222 463 223 0
-462 -222 0
-462 -463 0
-462 -223 0
-222 -463 0
-222 -223 0
-463 -223 0
480 223 481 224 0
-480 -223 0
-480 -481 0
-480 -224 0
-223 -481 0
-223 -224 0
-481 -224 0
498 224 499 225 0
-498 -224 0
-498 -499 0
-498 -225 0
-224 -499 0
-224 -225 0
-499 -225 0
516 225 517 226 0
-516 -225 0
-516 -517 0
-516 -226 0
-225 -517 0
-225 -226 0
-517 -226 0
534 226 535 227 0
-534 -226 0
-534 -535 0
-534 -227 0
-226 -535 0
-226 -227 0
-535 -227 0
552 227 553 228 0
-552 -227 0
-552 -553 0
-552 -228 0
-227 -553 0
-227 -228 0
-553 -228 0
570 228 571 229 0
-570 -228 0
-570 -571 0
-570 -229 0
-228 -571 0
-228 -229 0
-571 -229 0
588 229 589 230 0
-588 -229 0
-588 -589 0
-588 -230 0
-229 -589 0
-229 -230 0
-589 -230 0
606 230 607 231 0
-606 -230 0
-606 -607 0
-606 -231 0
-230 -607 0
-230 -231 0
-607 -231 0
624 231 625 232 0
-624 -231 0
-624 -625 0
-624 -232 0
-231 -625 0
-231 -232 0
-625 -232 0
642 232 643 233 0
-642 -232 0
-642 -643 0
-642 -233 0
-232 -643 0
-232 -233 0
-643 -233 0
660 233 661 234 0
-660 -233 0
-660 -661 0
-660 -234 0
-233 -661 0
-233 -234 0
-661 -234 0
678 234 679 0
-678 -234 0
-678 -679 0
-234 -679 0
355 356 235 0
-355 -356 0
-355 -235 0
-356 -235 0
373 235 374 236 0
-373 -235 0
-373 -374 0
-373 -236 0
-235 -374 0
-235 -236 0
-374 -236 0
391 236 392 237 0
-391 -236 0
-391 -392 0
-391 -237 0
-236 -392 0
-236 -237 0
-392 -237 0
409 237 410 238 0
-409 -237 0
-409 -410 0
-409 -238 0
-237 -410 0
-237 -238 0
-410 -238 0
427 238 428 239 0
-427 -238 0
-427 -428 0
-427 -239 0
-238 -428 0
-238 -239 0
-428 -239 0
445 239 446 240 0
-445 -239 0
-445 -446 0
-445 -240 0
-239 -446 0
-239 -240 0
-446 -240 0
463 240 464 241 0
-463 -240 0
-463 -464 0
-463 -241 0
-240 -464 0
-240 -241 0
-464 -241 0
481 241 482 242 0
-481 -241 0
-481 -482 0
-481 -242 0
-241 -482 0
-241 -242 0
-482 -242 0
499 242 500 243 0
-499 -242 0
-499 -500 0
-499 -243 0
-242 -500 0
-242 -243 0
-500 -243 0
517 243 518 244 0
-517 -243 0
-517 -518 0
-517 -244 0
-243 -518 0
-243 -244 0
-518 -244 0
535 244 536 245 0
-535 -244 0
-535 -536 0
-535 -245 0
-244 -536 0
-244 -245 0
-536 -245 0
553 245 554 246 0
-553 -245 0
-553 -554 0
-553 -246 0
-245 -554 0
-245 -246 0
-554 -246 0
571 246 572 247 0
-571 -246 0
-571 -572 0
-571 -247 0
-246 -572 0
-246 -247 0
-572 -247 0
589 247 590 248 0
-589 -247 0
-589 -590 0
-589 -248 0
-247 -590 0
-247 -248 0
-590 -248 0
607 248 608 249 0
-607 -248 0
-607 -608 0
-607 -249 0
-248 -608 0
-248 -249 0
-608 -249 0
625 249 626 250 0
-625 -249 0
-625 -626 0
-625 -250 0
-249 -626 0
-249 -250 0
-626 -250 0
643 250 644 251 0
-643 -250 0
-643 -644 0
-643 -251 0
-250 -644 0
-250 -251 0
-644 -251 0
661 251 662 252 0
-661 -251 0
-661 -662 0
-661 -252 0
-251 -662 0
-251 -252 0
-662 -252 0
679 252 680 0
-679 -252 0
-679 -680 0
-252 -680 0
356 357 253 0
-356 -357 0
-356 -253 0
-357 -253 0
374 253 375 254 0
-374 -253 0
-374 -375 0
-374 -254 0
-253 -375 0
-253 -254 0
-375 -254 0
392 254 393 255 0
-392 -254 0
-392 -393 0
-392 -255 0
-254 -393 0
-254 -255 0
-393 -255 0
410 255 411 256 0
-410 -255 0
-410 -411 0
-410 -256 0
-255 -411 0
-255 -256 0
-411 -256 0
428 256 429 257 0
-428 -256 0
-428 -429 0
-428 -257 0
-256 -429 0
-256 -257 0
-429 -257 0
446 257 447 258 0
-446 -257 0
-446 -447 0
-446 -258 0
-257 -447 0
-257 -258 0
-447 -258 0
464 258 465 259 0
-464 -258 0
-464 -465 0
-464 -259 0
-258 -465 0
-258 -259 0
-465 -259 0
482 259 483 260 0
-482 -259 0
-482 -483 0
-482 -260 0
-259 -483 0
-259 -260 0
-483 -260 0
500 260 501 261 0
-500 -260 0
-500 -501 0
-500 -261 0
-260 -501 0
-260 -261 0
-501 -261 0
518 261 519 262 0
-518 -261 0
-518 -519 0
-518 -262 0
-261 -519 0
-261 -262 0
-519 -262 0
536 262 537 263 0
-536 -262 0
-536 -537 0
-536 -263 0
-262 -537 0
-262 -263 0
-537 -263 0
554 263 555 264 0
-554 -263 0
-554 -555 0
-554 -264 0
-263 -555 0
-263 -264 0
-555 -264 0
572 264 573 265 0
-572 -264 0
-572 -573 0
-572 -265 0
-264 -573 0
-264 -265 0
-573 -265 0
590 265 591 266 0
-590 -265 0
-590 -591 0
-590 -266 0
-265 -591 0
-265 -266 0
-591 -266 0
608 266 609 267 0
-608 -266 0
-608 -609 0
-608 -267 0
-266 -609 0
-266 -267 0
-609 -267 0
626 267 627 268 0
-626 -267 0
-626 -627 0
-626 -268 0
-267 -627 0
-267 -268 0
-627 -268 0
644 268 645 269 0
-644 -268 0
-644 -645 0
-644 -269 0
-268 -645 0
-268 -269 0
-645 -269 0
662 269 663 270 0
-662 -269 0
-662 -663 0
-662 -270 0
-269 -663 0
-269 -270 0
-663 -270 0
680 270 681 0
-680 -270 0
-680 -681 0
-270 -681 0
357 358 271 0
-357 -358 0
-357 -271 0
-358 -271 0
375 271 376 272 0
-375 -271 0
-375 -376 0
-375 -272 0
-271 -376 0
-271 -272 0
-376 -272 0
393 272 394 273 0
-393 -272 0
-393 -394 0
-393 -273 0
-272 -394 0
-272 -273 0
-394 -273 0
411 273 412 274 0
-411 -273 0
-411 -412 0
-411 -274 0
-273 -412 0
-273 -274 0
-412 -274 0
429 274 430 275 0
-429 -274 0
-429 -430 0
-429 -275 0
-274 -430 0
-274 -275 0
-430 -275 0
447 275 448 276 0
-447 -275 0
-447 -448 0
-447 -276 0
-275 -448 0
-275 -276 0
-448 -276 0
465 276 466 277 0
-465 -276 0
-465 -466 0
-465 -277 0
-276 -466 0
-276 -277 0
-466 -277 0
483 277 484 278 0
-483 -277 0
-483 -484 0
-483 -278 0
-277 -484 0
-277 -278 0
-484 -278 0
501 278 502 279 0
-501 -278 0
-501 -502 0
-501 -279 0
-278 -502 0
-278 -279 0
-502 -279 0
519 279 520 280 0
-519 -279 0
-519 -520 0
-519 -280 0
-279 -520 0
-279 -280 0
-520 -280 0
537 280 538 281 0
-537 -280 0
-537 -538 0
-537 -281 0
-280 -538 0
-280 -281 0
-538 -281 0
555 281 556 282 0
-555 -281 0
-555 -556 0
-555 -282 0
-281 -556 0
-281 -282 0
-556 -282 0
573 282 574 283 0
-573 -282 0
-573 -574 0
-573 -283 0
-282 -574 0
-282 -283 0
-574 -283 0
591 283 592 284 0
-591 -283 0
-591 -592 0
-591 -284 0
-283 -592 0
-283 -284 0
-592 -284 0
609 284 610 285 0
-609 -284 0
-609 -610 0
-609 -285 0
-284 -610 0
-284 -285 0
-610 -285 0
627 285 628 286 0
-627 -285 0
-627 -628 0
-627 -286 0
-285 -628 0
-285 -286 0
-628 -286 0
645 286 646 287 0
-645 -286 0
-645 -646 0
-645 -287 0
-286 -646 0
-286 -287 0
-646 -287 0
663 287 664 288 0
-663 -287 0
-663 -664 0
-663 -288 0
-287 -664 0
-287 -288 0
-664 -288 0
681 288 682 0
-681 -288 0
-681 -682 0
-288 -682 0
358 359 289 0
-358 -359 0
-358 -289 0
-359 -289 0
376 289 377 290 0
-376 -289 0
-376 -377 0
-376 -290 0
-289 -377 0
-289 -290 0
-377 -290 0
394 290 395 291 0
-394 -290 0
-394 -395 0
-394 -291 0
-290 -395 0
-290 -291 0
-395 -291 0
412 291 413 292 0
-412 -291 0
-412 -413 0
-412 -292 0
-291 -413 0
-291 -292 0
-413 -292 0
430 292 431 293 0
-430 -292 0
-430 -431 0
-430 -293 0
-292 -431 0
-292 -293 0
-431 -293 0
448 293 449 294 0
-448 -293 0
-448 -449 0
-448 -294 0
-293 -449 0
-293 -294 0
-449 -294 0
466 294 467 295 0
-466 -294 0
-466 -467 0
-466 -295 0
-294 -467 0
-294 -295 0
-467 -295 0
484 295 485 296 0
-484 -295 0
-484 -485 0
-484 -296 0
-295 -485 0
-295 -296 0
-485 -296 0
502 296 503 297 0
-502 -296 0
-502 -503 0
-502 -297 0
-296 -503 0
-296 -297 0
-503 -297 0
520 297 521 298 0
-520 -297 0
-520 -521 0
-520 -298 0
-297 -521 0
-297 -298 0
-521 -298 0
538 298 539 299 0
-538 -298 0
-538 -539 0
-538 -299 0
-298 -539 0
-298 -299 0
-539 -299 0
556 299 557 300 0
-556 -299 0
-556 -557 0
-556 -300 0
-299 -557 0
-299 -300 0
-557 -300 0
574 300 575 301 0
-574 -300 0
-574 -575 0
-574 -301 0
-300 -575 0
-300 -301 0
-575 -301 0
592 301 593 302 0
-592 -301 0
-592 -593 0
-592 -302 0
-301 -593 0
-301 -302 0
-593 -302 0
610 302 611 303 0
-610 -302 0
-610 -611 0
-610 -303 0
-302 -611 0
-302 -303 0
-611 -303 0
628 303 629 304 0
-628 -303 0
-628 -629 0
-628 -304 0
-303 -629 0
-303 -304 0
-629 -304 0
646 304 647 305 0
-646 -304 0
-646 -647 0
-646 -305 0
-304 -647 0
-304 -305 0
-647 -305 0
664 305 665 306 0
-664 -305 0
-664 -665 0
-664 -306 0
-305 -665 0
-305 -306 0
-665 -306 0
682 306 683 0
-682 -306 0
-682 -683 0
-306 -683 0
359 360 307 0
-359 -360 0
-359 -307 0
-360 -307 0
377 307 378 308 0
-377 -307 0
-377 -378 0
-377 -308 0
-307 -378 0
-307 -308 0
-378 -308 0
395 308 396 309 0
-395 -308 0
-395 -396 0
-395 -309 0
-308 -396 0
-308 -309 0
-396 -309 0
413 309 414 310 0
-413 -309 0
-413 -414 0
-413 -310 0
-309 -414 0
-309 -310 0
-414 -310 0
431 310 432 311 0
-431 -310 0
-431 -432 0
-431 -311 0
-310 -432 0
-310 -311 0
-432 -311 0
449 311 450 312 0
-449 -311 0
-449 -450 0
-449 -312 0
-311 -450 0
-311 -312 0
-450 -312 0
467 312 468 313 0
-467 -312 0
-467 -468 0
-467 -313 0
-312 -468 0
-312 -313 0
-468 -313 0
485 313 486 314 0
-485 -313 0
-485 -486 0
-485 -314 0
-313 -486 0
-313 -314 0
-486 -314 0
503 314 504 315 0
-503 -314 0
-503 -504 0
-503 -315 0
-314 -504 0
-314 -315 0
-504 -315 0
521 315 522 316 0
-521 -315 0
-521 -522 0
-521 -316 0
-315 -522 0
-315 -316 0
-522 -316 0
539 316 540 317 0
-539 -316 0
-539 -540 0
-539 -317 0
-316 -540 0
-316 -317 0
-540 -317 0
557 317 558 318 0
-557 -317 0
-557 -558 0
-557 -318 0
-317 -558 0
-317 -318 0
-558 -318 0
575 318 576 319 0
-575 -318 0
-575 -576 0
-575 -319 0
-318 -576 0
-318 -319 0
-576 -319 0
593 319 594 320 0
-593 -319 0
-593 -594 0
-593 -320 0
-319 -594 0
-319 -320 0
-594 -320 0
611 320 612 321 0
-611 -320 0
-611 -612 0
-611 -321 0
-320 -612 0
-320 -321 0
-612 -321 0
629 321 630 322 0
-629 -321 0
-629 -630 0
-629 -322 0
-321 -630 0
-321 -322 0
-630 -322 0
647 322 648 323 0
-647 -322 0
-647 -648 0
-647 -323 0
-322 -648 0
-322 -323 0
-648 -323 0
665 323 666 324 0
-665 -323 0
-665 -666 0
-665 -324 0
-323 -666 0
-323 -324 0
-666 -324 0
683 324 0
-683 -324 0
360 325 0
-360 -325 0
378 325 326 0
-378 -325 0
-378 -326 0
-325 -326 0
396 326 327 0
-396 -326 0
-396 -327 0
-326 -327 0
414 327 328 0
-414 -327 0
-414 -328 0
-327 -328 0
432 328 329 0
-432 -328 0
-432 -329 0
-328 -329 0
450 329 330 0
-450 -329 0
-450 -330 0
-329 -330 0
468 330 331 0
-468 -330 0
-468 -331 0
-330 -331 0
486 331 332 0
-486 -331 0
-486 -332 0
-331 -332 0
504 332 333 0
-504 -332 0
-504 -333 0
-332 -333 0
522 333 334 0
-522 -333 0
-522 -334 0
-333 -334 0
540 334 335 0
-540 -334 0
-540 -335 0
-334 -335 0
558 335 336 0
-558 -335 0
-558 -336 0
-335 -336 0
576 336 337 0
-576 -336 0
-576 -337 0
-336 -337 0
594 337 338 0
-594 -337 0
-594 -338 0
-337 -338 0
612 338 339 0
-612 -338 0
-612 -339 0
-338 -339 0
630 339 340 0
-630 -339 0
-630 -340 0
-339 -340 0
648 340 341 0
-648 -340 0
-648 -341 0
-340 -341 0
666 341 0
-666 -341 0
-342 0
-684 0
